StringID   Type       x          y          demand     ReadyTime  DueDate    ServiceTime
D0         d              75.156    74.513      0.000      0.000     23.983      0.000
S0         f              75.156    74.513      0.000      0.000     23.983      0.000
S1         f               1.610    80.600      0.000      0.000     23.983      0.000
S2         f              50.290    15.350      0.000      0.000     23.983      0.000
C0         c              70.593    53.988      0.089     10.486     13.919      0.094
C1         c              62.001    20.934      0.006     12.683     16.933      0.053
C2         c               9.042    97.926      0.019     17.053     21.411      0.059
C3         c               4.015    28.617      0.035      9.913     13.714      0.068
C4         c              53.524    11.098      0.043     11.390     14.940      0.071

Q Vehicle fuel tank capacity /117.9000/
C Vehicle load capacity /1.1900/
r fuel consumption rate /0.4731/
g inverse refueling rate /0.0074/
v average Velocity /34.1200/
gv charging speed /134.6600/

--------------------
instance_id /425/
number of clusters /4/
working_startTime (hour) /8.00/
working_endTime (hour) /21.42/
instance_endTime (hour) /23.98/
service_time_type /cargoweight/
demand_type /random/
instance_type /RC/
instance x range /[0.0, 100.0]/
instance y range /[0.0, 100.0]/
cs_time_to_depot (hour)/[2.1628799515516013,1.8808954369148754]/
